NAME : gridAltered
COMMENT : Randomly removed some of the nodes from the grid tsp dataset i made.
TYPE : TSP
DIMENSION : 38
EDGE_WEIGHT_TYPE : EUC_2D
NODE_COORD_SECTION
1 0 0
2 100 0
3 200 0
4 300 0
5 400 0
6 500 0
7 600 0
8 200 100
9 300 100
10 400 100
11 500 100
12 600 100
13 0 200
14 100 200
15 200 200
16 300 200
17 400 200
18 500 200
19 600 200
20 0 300
21 200 300
22 300 300
23 400 300
24 500 300
25 600 300
26 0 400
27 300 400
28 400 400
29 500 400
30 600 400
31 0 500
32 200 500
33 300 500
34 400 500
35 500 500
36 600 500
37 0 600
38 500 600
EOF
